10 1 4
986 265 139 686 19 225 637 174 301 551 
36 680 44 568 956 537 852 808 547 659 
284 200 108 198 213 187 503 655 967 232 
871 953 497 9 638 515 234 275 689 534 
8250 7240 2130 8690 2920 1680 4050 1440 9750 9510 
27830
